NAME          
ROWS
 N  OBJ
 L  c3
 L  c4
 L  c5
 L  c6
 L  c7
 G  c1
 G  c2
COLUMNS
    ss[1]     c1        1
    ss[1]     OBJ       1000
    ss[2]     c2        1
    ss[2]     OBJ       1000
    s[1]      c3        1
    s[1]      OBJ       -1000
    s[2]      c4        1
    s[2]      OBJ       -1000
    s[3]      c5        1
    s[3]      OBJ       -1000
    s[4]      c6        1
    s[4]      OBJ       -1000
    s[5]      c7        1
    s[5]      OBJ       -1000
    MARKER    'MARKER'                 'INTORG'
    x[1]      c3        502
    x[1]      c4        430
    x[1]      c5        828
    x[1]      c6        839
    x[1]      c7        949
    x[1]      c1        556
    x[1]      c2        413
    x[1]      OBJ       -1302
    x[2]      c3        66
    x[2]      c4        323
    x[2]      c5        553
    x[2]      c6        674
    x[2]      c7        517
    x[2]      c1        125
    x[2]      c2        794
    x[2]      OBJ       -973
    x[3]      c3        229
    x[3]      c4        712
    x[3]      c5        337
    x[3]      c6        396
    x[3]      c7        55
    x[3]      c1        736
    x[3]      c2        494
    x[3]      OBJ       -853
    x[4]      c3        725
    x[4]      c4        645
    x[4]      c5        862
    x[4]      c6        128
    x[4]      c7        290
    x[4]      c1        557
    x[4]      c2        821
    x[4]      OBJ       -529
    x[5]      c3        461
    x[5]      c4        833
    x[5]      c5        225
    x[5]      c6        569
    x[5]      c7        784
    x[5]      c1        301
    x[5]      c2        348
    x[5]      OBJ       -1216
    x[6]      c3        533
    x[6]      c4        762
    x[6]      c5        41
    x[6]      c6        631
    x[6]      c7        129
    x[6]      c1        6
    x[6]      c2        961
    x[6]      OBJ       -1031
    x[7]      c3        658
    x[7]      c4        352
    x[7]      c5        933
    x[7]      c6        725
    x[7]      c7        21
    x[7]      c1        111
    x[7]      c2        63
    x[7]      OBJ       -1429
    x[8]      c3        340
    x[8]      c4        411
    x[8]      c5        845
    x[8]      c6        552
    x[8]      c7        599
    x[8]      c1        16
    x[8]      c2        962
    x[8]      OBJ       -1093
    x[9]      c3        95
    x[9]      c4        715
    x[9]      c5        980
    x[9]      c6        365
    x[9]      c7        792
    x[9]      c1        704
    x[9]      c2        799
    x[9]      OBJ       -852
    x[10]     c3        501
    x[10]     c4        141
    x[10]     c5        433
    x[10]     c6        292
    x[10]     c7        529
    x[10]     c1        952
    x[10]     c2        242
    x[10]     OBJ       -865
    x[11]     c3        697
    x[11]     c4        887
    x[11]     c5        139
    x[11]     c6        649
    x[11]     c7        46
    x[11]     c1        408
    x[11]     c2        352
    x[11]     OBJ       -1208
    x[12]     c3        437
    x[12]     c4        331
    x[12]     c5        809
    x[12]     c6        177
    x[12]     c7        542
    x[12]     c1        492
    x[12]     c2        337
    x[12]     OBJ       -851
    x[13]     c3        172
    x[13]     c4        388
    x[13]     c5        174
    x[13]     c6        372
    x[13]     c7        766
    x[13]     c1        163
    x[13]     c2        111
    x[13]     OBJ       -1335
    x[14]     c3        549
    x[14]     c4        546
    x[14]     c5        769
    x[14]     c6        75
    x[14]     c7        707
    x[14]     c1        938
    x[14]     c2        559
    x[14]     OBJ       -791
    x[15]     c3        801
    x[15]     c4        817
    x[15]     c5        819
    x[15]     c6        76
    x[15]     c7        864
    x[15]     c1        315
    x[15]     c2        889
    x[15]     OBJ       -1046
    x[16]     c3        408
    x[16]     c4        813
    x[16]     c5        641
    x[16]     c6        614
    x[16]     c7        166
    x[16]     c1        949
    x[16]     c2        595
    x[16]     OBJ       -758
    x[17]     c3        866
    x[17]     c4        541
    x[17]     c5        460
    x[17]     c6        205
    x[17]     c7        878
    x[17]     c1        670
    x[17]     c2        914
    x[17]     OBJ       -561
    x[18]     c3        475
    x[18]     c4        144
    x[18]     c5        906
    x[18]     c6        33
    x[18]     c7        808
    x[18]     c1        1000
    x[18]     c2        576
    x[18]     OBJ       -381
    x[19]     c3        253
    x[19]     c4        300
    x[19]     c5        816
    x[19]     c6        644
    x[19]     c7        61
    x[19]     c1        457
    x[19]     c2        312
    x[19]     OBJ       -794
    x[20]     c3        467
    x[20]     c4        311
    x[20]     c5        998
    x[20]     c6        660
    x[20]     c7        475
    x[20]     c1        816
    x[20]     c2        323
    x[20]     OBJ       -698
    x[21]     c3        809
    x[21]     c4        264
    x[21]     c5        112
    x[21]     c6        996
    x[21]     c7        657
    x[21]     c1        357
    x[21]     c2        153
    x[21]     OBJ       -1136
    x[22]     c3        802
    x[22]     c4        591
    x[22]     c5        608
    x[22]     c6        517
    x[22]     c7        933
    x[22]     c1        495
    x[22]     c2        888
    x[22]     OBJ       -1005
    x[23]     c3        683
    x[23]     c4        657
    x[23]     c5        653
    x[23]     c6        905
    x[23]     c7        257
    x[23]     c1        916
    x[23]     c2        287
    x[23]     OBJ       -741
    x[24]     c3        738
    x[24]     c4        848
    x[24]     c5        341
    x[24]     c6        989
    x[24]     c7        596
    x[24]     c1        852
    x[24]     c2        627
    x[24]     OBJ       -1051
    x[25]     c3        160
    x[25]     c4        101
    x[25]     c5        963
    x[25]     c6        284
    x[25]     c7        378
    x[25]     c1        614
    x[25]     c2        888
    x[25]     OBJ       -677
    x[26]     c3        41
    x[26]     c4        862
    x[26]     c5        453
    x[26]     c6        498
    x[26]     c7        685
    x[26]     c1        161
    x[26]     c2        634
    x[26]     OBJ       -1276
    x[27]     c3        432
    x[27]     c4        282
    x[27]     c5        968
    x[27]     c6        332
    x[27]     c7        506
    x[27]     c1        60
    x[27]     c2        424
    x[27]     OBJ       -1168
    x[28]     c3        538
    x[28]     c4        66
    x[28]     c5        909
    x[28]     c6        589
    x[28]     c7        223
    x[28]     c1        382
    x[28]     c2        365
    x[28]     OBJ       -907
    x[29]     c3        342
    x[29]     c4        101
    x[29]     c5        985
    x[29]     c6        842
    x[29]     c7        928
    x[29]     c1        373
    x[29]     c2        374
    x[29]     OBJ       -1212
    x[30]     c3        957
    x[30]     c4        401
    x[30]     c5        509
    x[30]     c6        337
    x[30]     c7        376
    x[30]     c1        570
    x[30]     c2        85
    x[30]     OBJ       -1044
    x[31]     c3        515
    x[31]     c4        322
    x[31]     c5        184
    x[31]     c6        656
    x[31]     c7        421
    x[31]     c1        182
    x[31]     c2        650
    x[31]     OBJ       -931
    x[32]     c3        995
    x[32]     c4        363
    x[32]     c5        807
    x[32]     c6        185
    x[32]     c7        369
    x[32]     c1        934
    x[32]     c2        265
    x[32]     OBJ       -727
    x[33]     c3        824
    x[33]     c4        471
    x[33]     c5        459
    x[33]     c6        834
    x[33]     c7        577
    x[33]     c1        129
    x[33]     c2        711
    x[33]     OBJ       -891
    x[34]     c3        255
    x[34]     c4        750
    x[34]     c5        726
    x[34]     c6        128
    x[34]     c7        194
    x[34]     c1        542
    x[34]     c2        204
    x[34]     OBJ       -1197
    x[35]     c3        712
    x[35]     c4        871
    x[35]     c5        336
    x[35]     c6        291
    x[35]     c7        341
    x[35]     c1        767
    x[35]     c2        816
    x[35]     OBJ       -638
    x[36]     c3        241
    x[36]     c4        523
    x[36]     c5        800
    x[36]     c6        789
    x[36]     c7        824
    x[36]     c1        964
    x[36]     c2        595
    x[36]     OBJ       -632
    x[37]     c3        541
    x[37]     c4        163
    x[37]     c5        818
    x[37]     c6        702
    x[37]     c7        73
    x[37]     c1        896
    x[37]     c2        111
    x[37]     OBJ       -877
    x[38]     c3        806
    x[38]     c4        428
    x[38]     c5        779
    x[38]     c6        935
    x[38]     c7        948
    x[38]     c1        350
    x[38]     c2        707
    x[38]     OBJ       -1376
    x[39]     c3        577
    x[39]     c4        265
    x[39]     c5        1
    x[39]     c6        883
    x[39]     c7        618
    x[39]     c1        178
    x[39]     c2        774
    x[39]     OBJ       -984
    x[40]     c3        313
    x[40]     c4        284
    x[40]     c5        656
    x[40]     c6        66
    x[40]     c7        764
    x[40]     c1        557
    x[40]     c2        138
    x[40]     OBJ       -1039
    x[41]     c3        595
    x[41]     c4        338
    x[41]     c5        344
    x[41]     c6        721
    x[41]     c7        469
    x[41]     c1        975
    x[41]     c2        687
    x[41]     OBJ       -430
    x[42]     c3        899
    x[42]     c4        346
    x[42]     c5        556
    x[42]     c6        673
    x[42]     c7        682
    x[42]     c1        70
    x[42]     c2        131
    x[42]     OBJ       -1259
    x[43]     c3        676
    x[43]     c4        616
    x[43]     c5        177
    x[43]     c6        897
    x[43]     c7        275
    x[43]     c1        226
    x[43]     c2        279
    x[43]     OBJ       -1275
    x[44]     c3        772
    x[44]     c4        467
    x[44]     c5        736
    x[44]     c6        906
    x[44]     c7        609
    x[44]     c1        356
    x[44]     c2        775
    x[44]     OBJ       -906
    x[45]     c3        560
    x[45]     c4        401
    x[45]     c5        263
    x[45]     c6        408
    x[45]     c7        290
    x[45]     c1        404
    x[45]     c2        191
    x[45]     OBJ       -1214
    x[46]     c3        342
    x[46]     c4        464
    x[46]     c5        304
    x[46]     c6        645
    x[46]     c7        873
    x[46]     c1        79
    x[46]     c2        217
    x[46]     OBJ       -1070
    x[47]     c3        791
    x[47]     c4        239
    x[47]     c5        542
    x[47]     c6        519
    x[47]     c7        147
    x[47]     c1        833
    x[47]     c2        181
    x[47]     OBJ       -843
    x[48]     c3        253
    x[48]     c4        712
    x[48]     c5        813
    x[48]     c6        244
    x[48]     c7        926
    x[48]     c1        616
    x[48]     c2        750
    x[48]     OBJ       -801
    x[49]     c3        400
    x[49]     c4        866
    x[49]     c5        326
    x[49]     c6        595
    x[49]     c7        772
    x[49]     c1        575
    x[49]     c2        890
    x[49]     OBJ       -739
    x[50]     c3        180
    x[50]     c4        129
    x[50]     c5        718
    x[50]     c6        15
    x[50]     c7        7
    x[50]     c1        987
    x[50]     c2        776
    x[50]     OBJ       -342
    x[51]     c3        60
    x[51]     c4        202
    x[51]     c5        601
    x[51]     c6        464
    x[51]     c7        860
    x[51]     c1        340
    x[51]     c2        484
    x[51]     OBJ       -844
    x[52]     c3        722
    x[52]     c4        710
    x[52]     c5        591
    x[52]     c6        93
    x[52]     c7        963
    x[52]     c1        794
    x[52]     c2        655
    x[52]     OBJ       -679
    x[53]     c3        945
    x[53]     c4        353
    x[53]     c5        216
    x[53]     c6        254
    x[53]     c7        543
    x[53]     c1        321
    x[53]     c2        662
    x[53]     OBJ       -763
    x[54]     c3        164
    x[54]     c4        715
    x[54]     c5        918
    x[54]     c6        627
    x[54]     c7        119
    x[54]     c1        337
    x[54]     c2        662
    x[54]     OBJ       -1181
    x[55]     c3        116
    x[55]     c4        176
    x[55]     c5        394
    x[55]     c6        284
    x[55]     c7        95
    x[55]     c1        580
    x[55]     c2        995
    x[55]     OBJ       -142
    x[56]     c3        429
    x[56]     c4        395
    x[56]     c5        512
    x[56]     c6        436
    x[56]     c7        764
    x[56]     c1        920
    x[56]     c2        248
    x[56]     OBJ       -890
    x[57]     c3        856
    x[57]     c4        71
    x[57]     c5        378
    x[57]     c6        787
    x[57]     c7        560
    x[57]     c1        425
    x[57]     c2        718
    x[57]     OBJ       -960
    x[58]     c3        102
    x[58]     c4        644
    x[58]     c5        970
    x[58]     c6        50
    x[58]     c7        563
    x[58]     c1        170
    x[58]     c2        321
    x[58]     OBJ       -1356
    x[59]     c3        573
    x[59]     c4        440
    x[59]     c5        751
    x[59]     c6        224
    x[59]     c7        959
    x[59]     c1        955
    x[59]     c2        533
    x[59]     OBJ       -787
    x[60]     c3        623
    x[60]     c4        247
    x[60]     c5        957
    x[60]     c6        220
    x[60]     c7        743
    x[60]     c1        581
    x[60]     c2        391
    x[60]     OBJ       -934
    x[61]     c3        633
    x[61]     c4        616
    x[61]     c5        639
    x[61]     c6        459
    x[61]     c7        57
    x[61]     c1        739
    x[61]     c2        81
    x[61]     OBJ       -918
    x[62]     c3        59
    x[62]     c4        68
    x[62]     c5        131
    x[62]     c6        124
    x[62]     c7        641
    x[62]     c1        622
    x[62]     c2        253
    x[62]     OBJ       -793
    x[63]     c3        235
    x[63]     c4        598
    x[63]     c5        116
    x[63]     c6        607
    x[63]     c7        48
    x[63]     c1        473
    x[63]     c2        879
    x[63]     OBJ       -358
    x[64]     c3        737
    x[64]     c4        12
    x[64]     c5        494
    x[64]     c6        64
    x[64]     c7        63
    x[64]     c1        789
    x[64]     c2        540
    x[64]     OBJ       -327
    x[65]     c3        376
    x[65]     c4        421
    x[65]     c5        662
    x[65]     c6        889
    x[65]     c7        87
    x[65]     c1        946
    x[65]     c2        959
    x[65]     OBJ       -522
    x[66]     c3        370
    x[66]     c4        83
    x[66]     c5        166
    x[66]     c6        172
    x[66]     c7        145
    x[66]     c1        499
    x[66]     c2        118
    x[66]     OBJ       -928
    x[67]     c3        528
    x[67]     c4        938
    x[67]     c5        345
    x[67]     c6        115
    x[67]     c7        338
    x[67]     c1        666
    x[67]     c2        989
    x[67]     OBJ       -605
    x[68]     c3        546
    x[68]     c4        602
    x[68]     c5        725
    x[68]     c6        904
    x[68]     c7        463
    x[68]     c1        546
    x[68]     c2        781
    x[68]     OBJ       -981
    x[69]     c3        699
    x[69]     c4        793
    x[69]     c5        135
    x[69]     c6        924
    x[69]     c7        947
    x[69]     c1        630
    x[69]     c2        678
    x[69]     OBJ       -1101
    x[70]     c3        352
    x[70]     c4        745
    x[70]     c5        843
    x[70]     c6        169
    x[70]     c7        611
    x[70]     c1        997
    x[70]     c2        787
    x[70]     OBJ       -604
    x[71]     c3        523
    x[71]     c4        924
    x[71]     c5        878
    x[71]     c6        841
    x[71]     c7        494
    x[71]     c1        462
    x[71]     c2        424
    x[71]     OBJ       -1061
    x[72]     c3        327
    x[72]     c4        535
    x[72]     c5        121
    x[72]     c6        110
    x[72]     c7        190
    x[72]     c1        750
    x[72]     c2        721
    x[72]     OBJ       -562
    x[73]     c3        412
    x[73]     c4        20
    x[73]     c5        600
    x[73]     c6        536
    x[73]     c7        762
    x[73]     c1        841
    x[73]     c2        623
    x[73]     OBJ       -722
    x[74]     c3        869
    x[74]     c4        303
    x[74]     c5        569
    x[74]     c6        962
    x[74]     c7        851
    x[74]     c1        795
    x[74]     c2        833
    x[74]     OBJ       -819
    x[75]     c3        841
    x[75]     c4        586
    x[75]     c5        735
    x[75]     c6        192
    x[75]     c7        717
    x[75]     c1        2
    x[75]     c2        986
    x[75]     OBJ       -1160
    x[76]     c3        758
    x[76]     c4        953
    x[76]     c5        263
    x[76]     c6        295
    x[76]     c7        908
    x[76]     c1        522
    x[76]     c2        141
    x[76]     OBJ       -1013
    x[77]     c3        320
    x[77]     c4        929
    x[77]     c5        425
    x[77]     c6        507
    x[77]     c7        758
    x[77]     c1        778
    x[77]     c2        66
    x[77]     OBJ       -1052
    x[78]     c3        230
    x[78]     c4        536
    x[78]     c5        803
    x[78]     c6        879
    x[78]     c7        714
    x[78]     c1        42
    x[78]     c2        983
    x[78]     OBJ       -831
    x[79]     c3        6
    x[79]     c4        301
    x[79]     c5        632
    x[79]     c6        456
    x[79]     c7        123
    x[79]     c1        714
    x[79]     c2        449
    x[79]     OBJ       -767
    x[80]     c3        409
    x[80]     c4        396
    x[80]     c5        5
    x[80]     c6        433
    x[80]     c7        240
    x[80]     c1        645
    x[80]     c2        654
    x[80]     OBJ       -404
    x[81]     c3        432
    x[81]     c4        87
    x[81]     c5        529
    x[81]     c6        865
    x[81]     c7        712
    x[81]     c1        855
    x[81]     c2        458
    x[81]     OBJ       -706
    x[82]     c3        678
    x[82]     c4        287
    x[82]     c5        609
    x[82]     c6        400
    x[82]     c7        59
    x[82]     c1        396
    x[82]     c2        675
    x[82]     OBJ       -814
    x[83]     c3        562
    x[83]     c4        575
    x[83]     c5        328
    x[83]     c6        762
    x[83]     c7        7
    x[83]     c1        768
    x[83]     c2        515
    x[83]     OBJ       -852
    x[84]     c3        595
    x[84]     c4        290
    x[84]     c5        647
    x[84]     c6        985
    x[84]     c7        199
    x[84]     c1        392
    x[84]     c2        718
    x[84]     OBJ       -744
    x[85]     c3        778
    x[85]     c4        714
    x[85]     c5        575
    x[85]     c6        591
    x[85]     c7        900
    x[85]     c1        141
    x[85]     c2        486
    x[85]     OBJ       -1079
    x[86]     c3        364
    x[86]     c4        407
    x[86]     c5        510
    x[86]     c6        502
    x[86]     c7        18
    x[86]     c1        544
    x[86]     c2        881
    x[86]     OBJ       -722
    x[87]     c3        908
    x[87]     c4        717
    x[87]     c5        413
    x[87]     c6        291
    x[87]     c7        183
    x[87]     c1        847
    x[87]     c2        726
    x[87]     OBJ       -458
    x[88]     c3        188
    x[88]     c4        189
    x[88]     c5        541
    x[88]     c6        601
    x[88]     c7        324
    x[88]     c1        263
    x[88]     c2        386
    x[88]     OBJ       -1177
    x[89]     c3        48
    x[89]     c4        880
    x[89]     c5        960
    x[89]     c6        31
    x[89]     c7        938
    x[89]     c1        325
    x[89]     c2        796
    x[89]     OBJ       -856
    x[90]     c3        291
    x[90]     c4        813
    x[90]     c5        932
    x[90]     c6        211
    x[90]     c7        301
    x[90]     c1        227
    x[90]     c2        229
    x[90]     OBJ       -1324
    x[91]     c3        984
    x[91]     c4        996
    x[91]     c5        378
    x[91]     c6        207
    x[91]     c7        325
    x[91]     c1        765
    x[91]     c2        398
    x[91]     OBJ       -966
    x[92]     c3        620
    x[92]     c4        717
    x[92]     c5        34
    x[92]     c6        228
    x[92]     c7        915
    x[92]     c1        128
    x[92]     c2        335
    x[92]     OBJ       -1368
    x[93]     c3        627
    x[93]     c4        283
    x[93]     c5        515
    x[93]     c6        160
    x[93]     c7        302
    x[93]     c1        10
    x[93]     c2        624
    x[93]     OBJ       -802
    x[94]     c3        571
    x[94]     c4        702
    x[94]     c5        946
    x[94]     c6        523
    x[94]     c7        472
    x[94]     c1        973
    x[94]     c2        283
    x[94]     OBJ       -727
    x[95]     c3        720
    x[95]     c4        797
    x[95]     c5        226
    x[95]     c6        328
    x[95]     c7        659
    x[95]     c1        162
    x[95]     c2        182
    x[95]     OBJ       -1244
    x[96]     c3        393
    x[96]     c4        650
    x[96]     c5        805
    x[96]     c6        10
    x[96]     c7        595
    x[96]     c1        743
    x[96]     c2        589
    x[96]     OBJ       -724
    x[97]     c3        119
    x[97]     c4        280
    x[97]     c5        430
    x[97]     c6        707
    x[97]     c7        79
    x[97]     c1        208
    x[97]     c2        153
    x[97]     OBJ       -1055
    x[98]     c3        43
    x[98]     c4        344
    x[98]     c5        969
    x[98]     c6        423
    x[98]     c7        345
    x[98]     c1        223
    x[98]     c2        945
    x[98]     OBJ       -590
    x[99]     c3        587
    x[99]     c4        592
    x[99]     c5        148
    x[99]     c6        324
    x[99]     c7        584
    x[99]     c1        981
    x[99]     c2        272
    x[99]     OBJ       -726
    x[100]    c3        448
    x[100]    c4        512
    x[100]    c5        14
    x[100]    c6        194
    x[100]    c7        31
    x[100]    c1        143
    x[100]    c2        849
    x[100]    OBJ       -835
RHS
    rhs       c3        12440
    rhs       c4        12184
    rhs       c5        13875
    rhs       c6        11869
    rhs       c7        12243
    rhs       c1        1316
    rhs       c2        1338
RANGES
BOUNDS
 LO bounds    ss[1]     0
 PL bounds    ss[1]
 LO bounds    ss[2]     0
 PL bounds    ss[2]
 MI bounds    s[1]
 UP bounds    s[1]      0
 MI bounds    s[2]
 UP bounds    s[2]      0
 MI bounds    s[3]
 UP bounds    s[3]      0
 MI bounds    s[4]
 UP bounds    s[4]      0
 MI bounds    s[5]
 UP bounds    s[5]      0
 BV bounds    x[1]
 BV bounds    x[2]
 BV bounds    x[3]
 BV bounds    x[4]
 BV bounds    x[5]
 BV bounds    x[6]
 BV bounds    x[7]
 BV bounds    x[8]
 BV bounds    x[9]
 BV bounds    x[10]
 BV bounds    x[11]
 BV bounds    x[12]
 BV bounds    x[13]
 BV bounds    x[14]
 BV bounds    x[15]
 BV bounds    x[16]
 BV bounds    x[17]
 BV bounds    x[18]
 BV bounds    x[19]
 BV bounds    x[20]
 BV bounds    x[21]
 BV bounds    x[22]
 BV bounds    x[23]
 BV bounds    x[24]
 BV bounds    x[25]
 BV bounds    x[26]
 BV bounds    x[27]
 BV bounds    x[28]
 BV bounds    x[29]
 BV bounds    x[30]
 BV bounds    x[31]
 BV bounds    x[32]
 BV bounds    x[33]
 BV bounds    x[34]
 BV bounds    x[35]
 BV bounds    x[36]
 BV bounds    x[37]
 BV bounds    x[38]
 BV bounds    x[39]
 BV bounds    x[40]
 BV bounds    x[41]
 BV bounds    x[42]
 BV bounds    x[43]
 BV bounds    x[44]
 BV bounds    x[45]
 BV bounds    x[46]
 BV bounds    x[47]
 BV bounds    x[48]
 BV bounds    x[49]
 BV bounds    x[50]
 BV bounds    x[51]
 BV bounds    x[52]
 BV bounds    x[53]
 BV bounds    x[54]
 BV bounds    x[55]
 BV bounds    x[56]
 BV bounds    x[57]
 BV bounds    x[58]
 BV bounds    x[59]
 BV bounds    x[60]
 BV bounds    x[61]
 BV bounds    x[62]
 BV bounds    x[63]
 BV bounds    x[64]
 BV bounds    x[65]
 BV bounds    x[66]
 BV bounds    x[67]
 BV bounds    x[68]
 BV bounds    x[69]
 BV bounds    x[70]
 BV bounds    x[71]
 BV bounds    x[72]
 BV bounds    x[73]
 BV bounds    x[74]
 BV bounds    x[75]
 BV bounds    x[76]
 BV bounds    x[77]
 BV bounds    x[78]
 BV bounds    x[79]
 BV bounds    x[80]
 BV bounds    x[81]
 BV bounds    x[82]
 BV bounds    x[83]
 BV bounds    x[84]
 BV bounds    x[85]
 BV bounds    x[86]
 BV bounds    x[87]
 BV bounds    x[88]
 BV bounds    x[89]
 BV bounds    x[90]
 BV bounds    x[91]
 BV bounds    x[92]
 BV bounds    x[93]
 BV bounds    x[94]
 BV bounds    x[95]
 BV bounds    x[96]
 BV bounds    x[97]
 BV bounds    x[98]
 BV bounds    x[99]
 BV bounds    x[100]
ENDATA
